(set-logic HORN)
(set-info :status sat)
(declare-fun FUN (Int ) Bool)
(declare-fun SAD (Int ) Bool)
(declare-fun WEE (Int ) Bool)

(assert (forall ((m Int)) (=> (> m 50) (FUN m))))
(assert (forall ((m Int) (m1 Int)) (=> (and (FUN m) (= m1 (+ m 1))) (FUN m1))))
(assert (forall ((m Int)) (=> (FUN m) (SAD m))))
(assert (forall ((m Int) (m1 Int)) (=> (and (SAD m) (= m1 (+ m 2))) (SAD m1))))
(assert (forall ((m Int)) (=> (SAD m) (WEE m))))
(assert (forall ((m Int) (m1 Int)) (=> (and (WEE m) (= m1 (+ m 3))) (WEE m1))))
(assert (forall ((m Int)) (=> (and (WEE m) (not (>= m 30))) false)))
(check-sat)
